2351891.0
1515
0 2 3 4 5 11 12 13 14 17 18 20 22 24 26 27 28 29 31 33 35 36 37 38 42 43 44 45 47 48 49 50 51 52 54 55 56 57 58 59 60 61 64 65 69 71 72 73 74 75 76 77 78 79 81 82 83 84 85 86 88 89 90 91 92 93 94 95 96 97 98 99 